p cnf 405 2120
-1 -295 0
-1 -296 0
-1 -297 0
-2 295 0
-2 -296 0
-2 -297 0
-3 -295 0
-3 296 0
-3 -297 0
-4 295 0
-4 296 0
-4 -297 0
-5 -295 0
-5 -296 0
-5 297 0
-6 295 0
-6 -296 0
-6 297 0
-1 43 0
-1 7 0
-2 44 0
-2 8 0
-3 45 0
-3 9 0
-4 46 0
-4 10 0
-5 47 0
-5 11 0
-6 48 0
-6 12 0
-7 -298 0
-7 -299 0
-7 -300 0
-8 298 0
-8 -299 0
-8 -300 0
-9 -298 0
-9 299 0
-9 -300 0
-10 298 0
-10 299 0
-10 -300 0
-11 -298 0
-11 -299 0
-11 300 0
-12 298 0
-12 -299 0
-12 300 0
-7 1 13 0
-7 1 49 0
-7 13 49 0
-8 2 14 0
-8 2 50 0
-8 14 50 0
-9 3 15 0
-9 3 51 0
-9 15 51 0
-10 4 16 0
-10 4 52 0
-10 16 52 0
-11 5 17 0
-11 5 53 0
-11 17 53 0
-12 6 18 0
-12 6 54 0
-12 18 54 0
-7 -1 -13 -49 0
-8 -2 -14 -50 0
-9 -3 -15 -51 0
-10 -4 -16 -52 0
-11 -5 -17 -53 0
-12 -6 -18 -54 0
13 0
-14 0
-15 0
-16 0
-17 0
-18 0
7 19 55 0
-7 -19 0
-7 -55 0
-19 -55 0
-19 -301 0
-19 -302 0
-19 -303 0
-20 301 0
-20 -302 0
-20 -303 0
-21 -301 0
-21 302 0
-21 -303 0
-22 301 0
-22 302 0
-22 -303 0
-23 -301 0
-23 -302 0
-23 303 0
-24 301 0
-24 -302 0
-24 303 0
-19 13 25 0
-19 13 61 0
-19 25 61 0
-20 14 26 0
-20 14 62 0
-20 26 62 0
-21 15 27 0
-21 15 63 0
-21 27 63 0
-22 16 28 0
-22 16 64 0
-22 28 64 0
-23 17 29 0
-23 17 65 0
-23 29 65 0
-24 18 30 0
-24 18 66 0
-24 30 66 0
-19 -13 -25 -61 0
-20 -14 -26 -62 0
-21 -15 -27 -63 0
-22 -16 -28 -64 0
-23 -17 -29 -65 0
-24 -18 -30 -66 0
-25 -304 0
-25 -305 0
-25 -306 0
-26 304 0
-26 -305 0
-26 -306 0
-27 -304 0
-27 305 0
-27 -306 0
-28 304 0
-28 305 0
-28 -306 0
-29 -304 0
-29 -305 0
-29 306 0
-30 304 0
-30 -305 0
-30 306 0
-25 19 31 0
-25 19 67 0
-25 31 67 0
-26 20 32 0
-26 20 68 0
-26 32 68 0
-27 21 33 0
-27 21 69 0
-27 33 69 0
-28 22 34 0
-28 22 70 0
-28 34 70 0
-29 23 35 0
-29 23 71 0
-29 35 71 0
-30 24 36 0
-30 24 72 0
-30 36 72 0
-25 -19 -31 -67 0
-26 -20 -32 -68 0
-27 -21 -33 -69 0
-28 -22 -34 -70 0
-29 -23 -35 -71 0
-30 -24 -36 -72 0
35 0
-31 0
-32 0
-33 0
-34 0
-36 0
29 41 77 0
-29 -41 0
-29 -77 0
-41 -77 0
42 0
-37 0
-38 0
-39 0
-40 0
-41 0
84 36 0
-84 -36 0
-43 -307 0
-43 -308 0
-43 -309 0
-44 307 0
-44 -308 0
-44 -309 0
-45 -307 0
-45 308 0
-45 -309 0
-46 307 0
-46 308 0
-46 -309 0
-47 -307 0
-47 -308 0
-47 309 0
-48 307 0
-48 -308 0
-48 309 0
-43 85 49 0
-43 85 1 0
-43 49 1 0
-44 86 50 0
-44 86 2 0
-44 50 2 0
-45 87 51 0
-45 87 3 0
-45 51 3 0
-46 88 52 0
-46 88 4 0
-46 52 4 0
-47 89 53 0
-47 89 5 0
-47 53 5 0
-48 90 54 0
-48 90 6 0
-48 54 6 0
-43 -85 -49 -1 0
-44 -86 -50 -2 0
-45 -87 -51 -3 0
-46 -88 -52 -4 0
-47 -89 -53 -5 0
-48 -90 -54 -6 0
-49 -310 0
-49 -311 0
-49 -312 0
-50 310 0
-50 -311 0
-50 -312 0
-51 -310 0
-51 311 0
-51 -312 0
-52 310 0
-52 311 0
-52 -312 0
-53 -310 0
-53 -311 0
-53 312 0
-54 310 0
-54 -311 0
-54 312 0
-49 91 55 7 0
-49 91 55 43 0
-49 91 7 43 0
-49 55 7 43 0
-50 92 56 8 0
-50 92 56 44 0
-50 92 8 44 0
-50 56 8 44 0
-51 93 57 9 0
-51 93 57 45 0
-51 93 9 45 0
-51 57 9 45 0
-52 94 58 10 0
-52 94 58 46 0
-52 94 10 46 0
-52 58 10 46 0
-53 95 59 11 0
-53 95 59 47 0
-53 95 11 47 0
-53 59 11 47 0
-54 96 60 12 0
-54 96 60 48 0
-54 96 12 48 0
-54 60 12 48 0
-49 -91 -55 -7 0
-49 -91 -55 -43 0
-49 -91 -7 -43 0
-49 -55 -7 -43 0
-50 -92 -56 -8 0
-50 -92 -56 -44 0
-50 -92 -8 -44 0
-50 -56 -8 -44 0
-51 -93 -57 -9 0
-51 -93 -57 -45 0
-51 -93 -9 -45 0
-51 -57 -9 -45 0
-52 -94 -58 -10 0
-52 -94 -58 -46 0
-52 -94 -10 -46 0
-52 -58 -10 -46 0
-53 -95 -59 -11 0
-53 -95 -59 -47 0
-53 -95 -11 -47 0
-53 -59 -11 -47 0
-54 -96 -60 -12 0
-54 -96 -60 -48 0
-54 -96 -12 -48 0
-54 -60 -12 -48 0
-55 -313 0
-55 -314 0
-55 -315 0
-56 313 0
-56 -314 0
-56 -315 0
-57 -313 0
-57 314 0
-57 -315 0
-58 313 0
-58 314 0
-58 -315 0
-59 -313 0
-59 -314 0
-59 315 0
-60 313 0
-60 -314 0
-60 315 0
-55 97 61 13 0
-55 97 61 49 0
-55 97 13 49 0
-55 61 13 49 0
-56 98 62 14 0
-56 98 62 50 0
-56 98 14 50 0
-56 62 14 50 0
-57 99 63 15 0
-57 99 63 51 0
-57 99 15 51 0
-57 63 15 51 0
-58 100 64 16 0
-58 100 64 52 0
-58 100 16 52 0
-58 64 16 52 0
-59 101 65 17 0
-59 101 65 53 0
-59 101 17 53 0
-59 65 17 53 0
-60 102 66 18 0
-60 102 66 54 0
-60 102 18 54 0
-60 66 18 54 0
-55 -97 -61 -13 0
-55 -97 -61 -49 0
-55 -97 -13 -49 0
-55 -61 -13 -49 0
-56 -98 -62 -14 0
-56 -98 -62 -50 0
-56 -98 -14 -50 0
-56 -62 -14 -50 0
-57 -99 -63 -15 0
-57 -99 -63 -51 0
-57 -99 -15 -51 0
-57 -63 -15 -51 0
-58 -100 -64 -16 0
-58 -100 -64 -52 0
-58 -100 -16 -52 0
-58 -64 -16 -52 0
-59 -101 -65 -17 0
-59 -101 -65 -53 0
-59 -101 -17 -53 0
-59 -65 -17 -53 0
-60 -102 -66 -18 0
-60 -102 -66 -54 0
-60 -102 -18 -54 0
-60 -66 -18 -54 0
-61 -316 0
-61 -317 0
-61 -318 0
-62 316 0
-62 -317 0
-62 -318 0
-63 -316 0
-63 317 0
-63 -318 0
-64 316 0
-64 317 0
-64 -318 0
-65 -316 0
-65 -317 0
-65 318 0
-66 316 0
-66 -317 0
-66 318 0
-61 103 67 19 0
-61 103 67 55 0
-61 103 19 55 0
-61 67 19 55 0
-62 104 68 20 0
-62 104 68 56 0
-62 104 20 56 0
-62 68 20 56 0
-63 105 69 21 0
-63 105 69 57 0
-63 105 21 57 0
-63 69 21 57 0
-64 106 70 22 0
-64 106 70 58 0
-64 106 22 58 0
-64 70 22 58 0
-65 107 71 23 0
-65 107 71 59 0
-65 107 23 59 0
-65 71 23 59 0
-66 108 72 24 0
-66 108 72 60 0
-66 108 24 60 0
-66 72 24 60 0
-61 -103 -67 -19 0
-61 -103 -67 -55 0
-61 -103 -19 -55 0
-61 -67 -19 -55 0
-62 -104 -68 -20 0
-62 -104 -68 -56 0
-62 -104 -20 -56 0
-62 -68 -20 -56 0
-63 -105 -69 -21 0
-63 -105 -69 -57 0
-63 -105 -21 -57 0
-63 -69 -21 -57 0
-64 -106 -70 -22 0
-64 -106 -70 -58 0
-64 -106 -22 -58 0
-64 -70 -22 -58 0
-65 -107 -71 -23 0
-65 -107 -71 -59 0
-65 -107 -23 -59 0
-65 -71 -23 -59 0
-66 -108 -72 -24 0
-66 -108 -72 -60 0
-66 -108 -24 -60 0
-66 -72 -24 -60 0
-67 -319 0
-67 -320 0
-67 -321 0
-68 319 0
-68 -320 0
-68 -321 0
-69 -319 0
-69 320 0
-69 -321 0
-70 319 0
-70 320 0
-70 -321 0
-71 -319 0
-71 -320 0
-71 321 0
-72 319 0
-72 -320 0
-72 321 0
-67 109 73 25 0
-67 109 73 61 0
-67 109 25 61 0
-67 73 25 61 0
-68 110 74 26 0
-68 110 74 62 0
-68 110 26 62 0
-68 74 26 62 0
-69 111 75 27 0
-69 111 75 63 0
-69 111 27 63 0
-69 75 27 63 0
-70 112 76 28 0
-70 112 76 64 0
-70 112 28 64 0
-70 76 28 64 0
-71 113 77 29 0
-71 113 77 65 0
-71 113 29 65 0
-71 77 29 65 0
-72 114 78 30 0
-72 114 78 66 0
-72 114 30 66 0
-72 78 30 66 0
-67 -109 -73 -25 0
-67 -109 -73 -61 0
-67 -109 -25 -61 0
-67 -73 -25 -61 0
-68 -110 -74 -26 0
-68 -110 -74 -62 0
-68 -110 -26 -62 0
-68 -74 -26 -62 0
-69 -111 -75 -27 0
-69 -111 -75 -63 0
-69 -111 -27 -63 0
-69 -75 -27 -63 0
-70 -112 -76 -28 0
-70 -112 -76 -64 0
-70 -112 -28 -64 0
-70 -76 -28 -64 0
-71 -113 -77 -29 0
-71 -113 -77 -65 0
-71 -113 -29 -65 0
-71 -77 -29 -65 0
-72 -114 -78 -30 0
-72 -114 -78 -66 0
-72 -114 -30 -66 0
-72 -78 -30 -66 0
-73 -322 0
-73 -323 0
-73 -324 0
-74 322 0
-74 -323 0
-74 -324 0
-75 -322 0
-75 323 0
-75 -324 0
-76 322 0
-76 323 0
-76 -324 0
-77 -322 0
-77 -323 0
-77 324 0
-78 322 0
-78 -323 0
-78 324 0
-73 115 79 31 0
-73 115 79 67 0
-73 115 31 67 0
-73 79 31 67 0
-74 116 80 32 0
-74 116 80 68 0
-74 116 32 68 0
-74 80 32 68 0
-75 117 81 33 0
-75 117 81 69 0
-75 117 33 69 0
-75 81 33 69 0
-76 118 82 34 0
-76 118 82 70 0
-76 118 34 70 0
-76 82 34 70 0
-77 119 83 35 0
-77 119 83 71 0
-77 119 35 71 0
-77 83 35 71 0
-78 120 84 36 0
-78 120 84 72 0
-78 120 36 72 0
-78 84 36 72 0
-73 -115 -79 -31 0
-73 -115 -79 -67 0
-73 -115 -31 -67 0
-73 -79 -31 -67 0
-74 -116 -80 -32 0
-74 -116 -80 -68 0
-74 -116 -32 -68 0
-74 -80 -32 -68 0
-75 -117 -81 -33 0
-75 -117 -81 -69 0
-75 -117 -33 -69 0
-75 -81 -33 -69 0
-76 -118 -82 -34 0
-76 -118 -82 -70 0
-76 -118 -34 -70 0
-76 -82 -34 -70 0
-77 -119 -83 -35 0
-77 -119 -83 -71 0
-77 -119 -35 -71 0
-77 -83 -35 -71 0
-78 -120 -84 -36 0
-78 -120 -84 -72 0
-78 -120 -36 -72 0
-78 -84 -36 -72 0
-79 -325 0
-79 -326 0
-79 -327 0
-80 325 0
-80 -326 0
-80 -327 0
-81 -325 0
-81 326 0
-81 -327 0
-82 325 0
-82 326 0
-82 -327 0
-83 -325 0
-83 -326 0
-83 327 0
-84 325 0
-84 -326 0
-84 327 0
-79 121 73 0
-79 121 37 0
-79 73 37 0
-80 122 74 0
-80 122 38 0
-80 74 38 0
-81 123 75 0
-81 123 39 0
-81 75 39 0
-82 124 76 0
-82 124 40 0
-82 76 40 0
-83 125 77 0
-83 125 41 0
-83 77 41 0
-84 126 78 0
-84 126 42 0
-84 78 42 0
-79 -121 -73 -37 0
-80 -122 -74 -38 0
-81 -123 -75 -39 0
-82 -124 -76 -40 0
-83 -125 -77 -41 0
-84 -126 -78 -42 0
-85 -328 0
-85 -329 0
-85 -330 0
-86 328 0
-86 -329 0
-86 -330 0
-87 -328 0
-87 329 0
-87 -330 0
-88 328 0
-88 329 0
-88 -330 0
-89 -328 0
-89 -329 0
-89 330 0
-90 328 0
-90 -329 0
-90 330 0
-85 127 91 0
-85 127 43 0
-85 91 43 0
-86 128 92 0
-86 128 44 0
-86 92 44 0
-87 129 93 0
-87 129 45 0
-87 93 45 0
-88 130 94 0
-88 130 46 0
-88 94 46 0
-89 131 95 0
-89 131 47 0
-89 95 47 0
-90 132 96 0
-90 132 48 0
-90 96 48 0
-85 -127 -91 -43 0
-86 -128 -92 -44 0
-87 -129 -93 -45 0
-88 -130 -94 -46 0
-89 -131 -95 -47 0
-90 -132 -96 -48 0
-91 -331 0
-91 -332 0
-91 -333 0
-92 331 0
-92 -332 0
-92 -333 0
-93 -331 0
-93 332 0
-93 -333 0
-94 331 0
-94 332 0
-94 -333 0
-95 -331 0
-95 -332 0
-95 333 0
-96 331 0
-96 -332 0
-96 333 0
-91 133 97 49 0
-91 133 97 85 0
-91 133 49 85 0
-91 97 49 85 0
-92 134 98 50 0
-92 134 98 86 0
-92 134 50 86 0
-92 98 50 86 0
-93 135 99 51 0
-93 135 99 87 0
-93 135 51 87 0
-93 99 51 87 0
-94 136 100 52 0
-94 136 100 88 0
-94 136 52 88 0
-94 100 52 88 0
-95 137 101 53 0
-95 137 101 89 0
-95 137 53 89 0
-95 101 53 89 0
-96 138 102 54 0
-96 138 102 90 0
-96 138 54 90 0
-96 102 54 90 0
-91 -133 -97 -49 0
-91 -133 -97 -85 0
-91 -133 -49 -85 0
-91 -97 -49 -85 0
-92 -134 -98 -50 0
-92 -134 -98 -86 0
-92 -134 -50 -86 0
-92 -98 -50 -86 0
-93 -135 -99 -51 0
-93 -135 -99 -87 0
-93 -135 -51 -87 0
-93 -99 -51 -87 0
-94 -136 -100 -52 0
-94 -136 -100 -88 0
-94 -136 -52 -88 0
-94 -100 -52 -88 0
-95 -137 -101 -53 0
-95 -137 -101 -89 0
-95 -137 -53 -89 0
-95 -101 -53 -89 0
-96 -138 -102 -54 0
-96 -138 -102 -90 0
-96 -138 -54 -90 0
-96 -102 -54 -90 0
102 0
-97 0
-98 0
-99 0
-100 0
-101 0
144 108 60 96 0
-144 -108 0
-144 -60 0
-144 -96 0
-108 -60 0
-108 -96 0
-60 -96 0
-103 -334 0
-103 -335 0
-103 -336 0
-104 334 0
-104 -335 0
-104 -336 0
-105 -334 0
-105 335 0
-105 -336 0
-106 334 0
-106 335 0
-106 -336 0
-107 -334 0
-107 -335 0
-107 336 0
-108 334 0
-108 -335 0
-108 336 0
-103 145 109 61 0
-103 145 109 97 0
-103 145 61 97 0
-103 109 61 97 0
-104 146 110 62 0
-104 146 110 98 0
-104 146 62 98 0
-104 110 62 98 0
-105 147 111 63 0
-105 147 111 99 0
-105 147 63 99 0
-105 111 63 99 0
-106 148 112 64 0
-106 148 112 100 0
-106 148 64 100 0
-106 112 64 100 0
-107 149 113 65 0
-107 149 113 101 0
-107 149 65 101 0
-107 113 65 101 0
-108 150 114 66 0
-108 150 114 102 0
-108 150 66 102 0
-108 114 66 102 0
-103 -145 -109 -61 0
-103 -145 -109 -97 0
-103 -145 -61 -97 0
-103 -109 -61 -97 0
-104 -146 -110 -62 0
-104 -146 -110 -98 0
-104 -146 -62 -98 0
-104 -110 -62 -98 0
-105 -147 -111 -63 0
-105 -147 -111 -99 0
-105 -147 -63 -99 0
-105 -111 -63 -99 0
-106 -148 -112 -64 0
-106 -148 -112 -100 0
-106 -148 -64 -100 0
-106 -112 -64 -100 0
-107 -149 -113 -65 0
-107 -149 -113 -101 0
-107 -149 -65 -101 0
-107 -113 -65 -101 0
-108 -150 -114 -66 0
-108 -150 -114 -102 0
-108 -150 -66 -102 0
-108 -114 -66 -102 0
-109 -337 0
-109 -338 0
-109 -339 0
-110 337 0
-110 -338 0
-110 -339 0
-111 -337 0
-111 338 0
-111 -339 0
-112 337 0
-112 338 0
-112 -339 0
-113 -337 0
-113 -338 0
-113 339 0
-114 337 0
-114 -338 0
-114 339 0
-109 151 115 67 0
-109 151 115 103 0
-109 151 67 103 0
-109 115 67 103 0
-110 152 116 68 0
-110 152 116 104 0
-110 152 68 104 0
-110 116 68 104 0
-111 153 117 69 0
-111 153 117 105 0
-111 153 69 105 0
-111 117 69 105 0
-112 154 118 70 0
-112 154 118 106 0
-112 154 70 106 0
-112 118 70 106 0
-113 155 119 71 0
-113 155 119 107 0
-113 155 71 107 0
-113 119 71 107 0
-114 156 120 72 0
-114 156 120 108 0
-114 156 72 108 0
-114 120 72 108 0
-109 -151 -115 -67 0
-109 -151 -115 -103 0
-109 -151 -67 -103 0
-109 -115 -67 -103 0
-110 -152 -116 -68 0
-110 -152 -116 -104 0
-110 -152 -68 -104 0
-110 -116 -68 -104 0
-111 -153 -117 -69 0
-111 -153 -117 -105 0
-111 -153 -69 -105 0
-111 -117 -69 -105 0
-112 -154 -118 -70 0
-112 -154 -118 -106 0
-112 -154 -70 -106 0
-112 -118 -70 -106 0
-113 -155 -119 -71 0
-113 -155 -119 -107 0
-113 -155 -71 -107 0
-113 -119 -71 -107 0
-114 -156 -120 -72 0
-114 -156 -120 -108 0
-114 -156 -72 -108 0
-114 -120 -72 -108 0
118 0
-115 0
-116 0
-117 0
-119 0
-120 0
160 124 76 112 0
-160 -124 0
-160 -76 0
-160 -112 0
-124 -76 0
-124 -112 0
-76 -112 0
122 0
-121 0
-123 0
-124 0
-125 0
-126 0
164 116 80 0
-164 -116 0
-164 -80 0
-116 -80 0
-127 -340 0
-127 -341 0
-127 -342 0
-128 340 0
-128 -341 0
-128 -342 0
-129 -340 0
-129 341 0
-129 -342 0
-130 340 0
-130 341 0
-130 -342 0
-131 -340 0
-131 -341 0
-131 342 0
-132 340 0
-132 -341 0
-132 342 0
-127 169 133 0
-127 169 85 0
-127 133 85 0
-128 170 134 0
-128 170 86 0
-128 134 86 0
-129 171 135 0
-129 171 87 0
-129 135 87 0
-130 172 136 0
-130 172 88 0
-130 136 88 0
-131 173 137 0
-131 173 89 0
-131 137 89 0
-132 174 138 0
-132 174 90 0
-132 138 90 0
-127 -169 -133 -85 0
-128 -170 -134 -86 0
-129 -171 -135 -87 0
-130 -172 -136 -88 0
-131 -173 -137 -89 0
-132 -174 -138 -90 0
-133 -343 0
-133 -344 0
-133 -345 0
-134 343 0
-134 -344 0
-134 -345 0
-135 -343 0
-135 344 0
-135 -345 0
-136 343 0
-136 344 0
-136 -345 0
-137 -343 0
-137 -344 0
-137 345 0
-138 343 0
-138 -344 0
-138 345 0
-133 175 139 91 0
-133 175 139 127 0
-133 175 91 127 0
-133 139 91 127 0
-134 176 140 92 0
-134 176 140 128 0
-134 176 92 128 0
-134 140 92 128 0
-135 177 141 93 0
-135 177 141 129 0
-135 177 93 129 0
-135 141 93 129 0
-136 178 142 94 0
-136 178 142 130 0
-136 178 94 130 0
-136 142 94 130 0
-137 179 143 95 0
-137 179 143 131 0
-137 179 95 131 0
-137 143 95 131 0
-138 180 144 96 0
-138 180 144 132 0
-138 180 96 132 0
-138 144 96 132 0
-133 -175 -139 -91 0
-133 -175 -139 -127 0
-133 -175 -91 -127 0
-133 -139 -91 -127 0
-134 -176 -140 -92 0
-134 -176 -140 -128 0
-134 -176 -92 -128 0
-134 -140 -92 -128 0
-135 -177 -141 -93 0
-135 -177 -141 -129 0
-135 -177 -93 -129 0
-135 -141 -93 -129 0
-136 -178 -142 -94 0
-136 -178 -142 -130 0
-136 -178 -94 -130 0
-136 -142 -94 -130 0
-137 -179 -143 -95 0
-137 -179 -143 -131 0
-137 -179 -95 -131 0
-137 -143 -95 -131 0
-138 -180 -144 -96 0
-138 -180 -144 -132 0
-138 -180 -96 -132 0
-138 -144 -96 -132 0
-139 -346 0
-139 -347 0
-139 -348 0
-140 346 0
-140 -347 0
-140 -348 0
-141 -346 0
-141 347 0
-141 -348 0
-142 346 0
-142 347 0
-142 -348 0
-143 -346 0
-143 -347 0
-143 348 0
-144 346 0
-144 -347 0
-144 348 0
-139 181 145 97 0
-139 181 145 133 0
-139 181 97 133 0
-139 145 97 133 0
-140 182 146 98 0
-140 182 146 134 0
-140 182 98 134 0
-140 146 98 134 0
-141 183 147 99 0
-141 183 147 135 0
-141 183 99 135 0
-141 147 99 135 0
-142 184 148 100 0
-142 184 148 136 0
-142 184 100 136 0
-142 148 100 136 0
-143 185 149 101 0
-143 185 149 137 0
-143 185 101 137 0
-143 149 101 137 0
-144 186 150 102 0
-144 186 150 138 0
-144 186 102 138 0
-144 150 102 138 0
-139 -181 -145 -97 0
-139 -181 -145 -133 0
-139 -181 -97 -133 0
-139 -145 -97 -133 0
-140 -182 -146 -98 0
-140 -182 -146 -134 0
-140 -182 -98 -134 0
-140 -146 -98 -134 0
-141 -183 -147 -99 0
-141 -183 -147 -135 0
-141 -183 -99 -135 0
-141 -147 -99 -135 0
-142 -184 -148 -100 0
-142 -184 -148 -136 0
-142 -184 -100 -136 0
-142 -148 -100 -136 0
-143 -185 -149 -101 0
-143 -185 -149 -137 0
-143 -185 -101 -137 0
-143 -149 -101 -137 0
-144 -186 -150 -102 0
-144 -186 -150 -138 0
-144 -186 -102 -138 0
-144 -150 -102 -138 0
-145 -349 0
-145 -350 0
-145 -351 0
-146 349 0
-146 -350 0
-146 -351 0
-147 -349 0
-147 350 0
-147 -351 0
-148 349 0
-148 350 0
-148 -351 0
-149 -349 0
-149 -350 0
-149 351 0
-150 349 0
-150 -350 0
-150 351 0
-145 187 151 103 0
-145 187 151 139 0
-145 187 103 139 0
-145 151 103 139 0
-146 188 152 104 0
-146 188 152 140 0
-146 188 104 140 0
-146 152 104 140 0
-147 189 153 105 0
-147 189 153 141 0
-147 189 105 141 0
-147 153 105 141 0
-148 190 154 106 0
-148 190 154 142 0
-148 190 106 142 0
-148 154 106 142 0
-149 191 155 107 0
-149 191 155 143 0
-149 191 107 143 0
-149 155 107 143 0
-150 192 156 108 0
-150 192 156 144 0
-150 192 108 144 0
-150 156 108 144 0
-145 -187 -151 -103 0
-145 -187 -151 -139 0
-145 -187 -103 -139 0
-145 -151 -103 -139 0
-146 -188 -152 -104 0
-146 -188 -152 -140 0
-146 -188 -104 -140 0
-146 -152 -104 -140 0
-147 -189 -153 -105 0
-147 -189 -153 -141 0
-147 -189 -105 -141 0
-147 -153 -105 -141 0
-148 -190 -154 -106 0
-148 -190 -154 -142 0
-148 -190 -106 -142 0
-148 -154 -106 -142 0
-149 -191 -155 -107 0
-149 -191 -155 -143 0
-149 -191 -107 -143 0
-149 -155 -107 -143 0
-150 -192 -156 -108 0
-150 -192 -156 -144 0
-150 -192 -108 -144 0
-150 -156 -108 -144 0
155 0
-151 0
-152 0
-153 0
-154 0
-156 0
197 161 113 149 0
-197 -161 0
-197 -113 0
-197 -149 0
-161 -113 0
-161 -149 0
-113 -149 0
-157 -352 0
-157 -353 0
-157 -354 0
-158 352 0
-158 -353 0
-158 -354 0
-159 -352 0
-159 353 0
-159 -354 0
-160 352 0
-160 353 0
-160 -354 0
-161 -352 0
-161 -353 0
-161 354 0
-162 352 0
-162 -353 0
-162 354 0
-157 199 163 115 0
-157 199 163 151 0
-157 199 115 151 0
-157 163 115 151 0
-158 200 164 116 0
-158 200 164 152 0
-158 200 116 152 0
-158 164 116 152 0
-159 201 165 117 0
-159 201 165 153 0
-159 201 117 153 0
-159 165 117 153 0
-160 202 166 118 0
-160 202 166 154 0
-160 202 118 154 0
-160 166 118 154 0
-161 203 167 119 0
-161 203 167 155 0
-161 203 119 155 0
-161 167 119 155 0
-162 204 168 120 0
-162 204 168 156 0
-162 204 120 156 0
-162 168 120 156 0
-157 -199 -163 -115 0
-157 -199 -163 -151 0
-157 -199 -115 -151 0
-157 -163 -115 -151 0
-158 -200 -164 -116 0
-158 -200 -164 -152 0
-158 -200 -116 -152 0
-158 -164 -116 -152 0
-159 -201 -165 -117 0
-159 -201 -165 -153 0
-159 -201 -117 -153 0
-159 -165 -117 -153 0
-160 -202 -166 -118 0
-160 -202 -166 -154 0
-160 -202 -118 -154 0
-160 -166 -118 -154 0
-161 -203 -167 -119 0
-161 -203 -167 -155 0
-161 -203 -119 -155 0
-161 -167 -119 -155 0
-162 -204 -168 -120 0
-162 -204 -168 -156 0
-162 -204 -120 -156 0
-162 -168 -120 -156 0
-163 -355 0
-163 -356 0
-163 -357 0
-164 355 0
-164 -356 0
-164 -357 0
-165 -355 0
-165 356 0
-165 -357 0
-166 355 0
-166 356 0
-166 -357 0
-167 -355 0
-167 -356 0
-167 357 0
-168 355 0
-168 -356 0
-168 357 0
-163 205 157 0
-163 205 121 0
-163 157 121 0
-164 206 158 0
-164 206 122 0
-164 158 122 0
-165 207 159 0
-165 207 123 0
-165 159 123 0
-166 208 160 0
-166 208 124 0
-166 160 124 0
-167 209 161 0
-167 209 125 0
-167 161 125 0
-168 210 162 0
-168 210 126 0
-168 162 126 0
-163 -205 -157 -121 0
-164 -206 -158 -122 0
-165 -207 -159 -123 0
-166 -208 -160 -124 0
-167 -209 -161 -125 0
-168 -210 -162 -126 0
-169 -358 0
-169 -359 0
-169 -360 0
-170 358 0
-170 -359 0
-170 -360 0
-171 -358 0
-171 359 0
-171 -360 0
-172 358 0
-172 359 0
-172 -360 0
-173 -358 0
-173 -359 0
-173 360 0
-174 358 0
-174 -359 0
-174 360 0
-169 211 175 0
-169 211 127 0
-169 175 127 0
-170 212 176 0
-170 212 128 0
-170 176 128 0
-171 213 177 0
-171 213 129 0
-171 177 129 0
-172 214 178 0
-172 214 130 0
-172 178 130 0
-173 215 179 0
-173 215 131 0
-173 179 131 0
-174 216 180 0
-174 216 132 0
-174 180 132 0
-169 -211 -175 -127 0
-170 -212 -176 -128 0
-171 -213 -177 -129 0
-172 -214 -178 -130 0
-173 -215 -179 -131 0
-174 -216 -180 -132 0
178 0
-175 0
-176 0
-177 0
-179 0
-180 0
220 184 136 172 0
-220 -184 0
-220 -136 0
-220 -172 0
-184 -136 0
-184 -172 0
-136 -172 0
-181 -361 0
-181 -362 0
-181 -363 0
-182 361 0
-182 -362 0
-182 -363 0
-183 -361 0
-183 362 0
-183 -363 0
-184 361 0
-184 362 0
-184 -363 0
-185 -361 0
-185 -362 0
-185 363 0
-186 361 0
-186 -362 0
-186 363 0
-181 223 187 139 0
-181 223 187 175 0
-181 223 139 175 0
-181 187 139 175 0
-182 224 188 140 0
-182 224 188 176 0
-182 224 140 176 0
-182 188 140 176 0
-183 225 189 141 0
-183 225 189 177 0
-183 225 141 177 0
-183 189 141 177 0
-184 226 190 142 0
-184 226 190 178 0
-184 226 142 178 0
-184 190 142 178 0
-185 227 191 143 0
-185 227 191 179 0
-185 227 143 179 0
-185 191 143 179 0
-186 228 192 144 0
-186 228 192 180 0
-186 228 144 180 0
-186 192 144 180 0
-181 -223 -187 -139 0
-181 -223 -187 -175 0
-181 -223 -139 -175 0
-181 -187 -139 -175 0
-182 -224 -188 -140 0
-182 -224 -188 -176 0
-182 -224 -140 -176 0
-182 -188 -140 -176 0
-183 -225 -189 -141 0
-183 -225 -189 -177 0
-183 -225 -141 -177 0
-183 -189 -141 -177 0
-184 -226 -190 -142 0
-184 -226 -190 -178 0
-184 -226 -142 -178 0
-184 -190 -142 -178 0
-185 -227 -191 -143 0
-185 -227 -191 -179 0
-185 -227 -143 -179 0
-185 -191 -143 -179 0
-186 -228 -192 -144 0
-186 -228 -192 -180 0
-186 -228 -144 -180 0
-186 -192 -144 -180 0
-187 -364 0
-187 -365 0
-187 -366 0
-188 364 0
-188 -365 0
-188 -366 0
-189 -364 0
-189 365 0
-189 -366 0
-190 364 0
-190 365 0
-190 -366 0
-191 -364 0
-191 -365 0
-191 366 0
-192 364 0
-192 -365 0
-192 366 0
-187 229 193 145 0
-187 229 193 181 0
-187 229 145 181 0
-187 193 145 181 0
-188 230 194 146 0
-188 230 194 182 0
-188 230 146 182 0
-188 194 146 182 0
-189 231 195 147 0
-189 231 195 183 0
-189 231 147 183 0
-189 195 147 183 0
-190 232 196 148 0
-190 232 196 184 0
-190 232 148 184 0
-190 196 148 184 0
-191 233 197 149 0
-191 233 197 185 0
-191 233 149 185 0
-191 197 149 185 0
-192 234 198 150 0
-192 234 198 186 0
-192 234 150 186 0
-192 198 150 186 0
-187 -229 -193 -145 0
-187 -229 -193 -181 0
-187 -229 -145 -181 0
-187 -193 -145 -181 0
-188 -230 -194 -146 0
-188 -230 -194 -182 0
-188 -230 -146 -182 0
-188 -194 -146 -182 0
-189 -231 -195 -147 0
-189 -231 -195 -183 0
-189 -231 -147 -183 0
-189 -195 -147 -183 0
-190 -232 -196 -148 0
-190 -232 -196 -184 0
-190 -232 -148 -184 0
-190 -196 -148 -184 0
-191 -233 -197 -149 0
-191 -233 -197 -185 0
-191 -233 -149 -185 0
-191 -197 -149 -185 0
-192 -234 -198 -150 0
-192 -234 -198 -186 0
-192 -234 -150 -186 0
-192 -198 -150 -186 0
-193 -367 0
-193 -368 0
-193 -369 0
-194 367 0
-194 -368 0
-194 -369 0
-195 -367 0
-195 368 0
-195 -369 0
-196 367 0
-196 368 0
-196 -369 0
-197 -367 0
-197 -368 0
-197 369 0
-198 367 0
-198 -368 0
-198 369 0
-193 235 199 151 0
-193 235 199 187 0
-193 235 151 187 0
-193 199 151 187 0
-194 236 200 152 0
-194 236 200 188 0
-194 236 152 188 0
-194 200 152 188 0
-195 237 201 153 0
-195 237 201 189 0
-195 237 153 189 0
-195 201 153 189 0
-196 238 202 154 0
-196 238 202 190 0
-196 238 154 190 0
-196 202 154 190 0
-197 239 203 155 0
-197 239 203 191 0
-197 239 155 191 0
-197 203 155 191 0
-198 240 204 156 0
-198 240 204 192 0
-198 240 156 192 0
-198 204 156 192 0
-193 -235 -199 -151 0
-193 -235 -199 -187 0
-193 -235 -151 -187 0
-193 -199 -151 -187 0
-194 -236 -200 -152 0
-194 -236 -200 -188 0
-194 -236 -152 -188 0
-194 -200 -152 -188 0
-195 -237 -201 -153 0
-195 -237 -201 -189 0
-195 -237 -153 -189 0
-195 -201 -153 -189 0
-196 -238 -202 -154 0
-196 -238 -202 -190 0
-196 -238 -154 -190 0
-196 -202 -154 -190 0
-197 -239 -203 -155 0
-197 -239 -203 -191 0
-197 -239 -155 -191 0
-197 -203 -155 -191 0
-198 -240 -204 -156 0
-198 -240 -204 -192 0
-198 -240 -156 -192 0
-198 -204 -156 -192 0
-199 -370 0
-199 -371 0
-199 -372 0
-200 370 0
-200 -371 0
-200 -372 0
-201 -370 0
-201 371 0
-201 -372 0
-202 370 0
-202 371 0
-202 -372 0
-203 -370 0
-203 -371 0
-203 372 0
-204 370 0
-204 -371 0
-204 372 0
-199 241 205 157 0
-199 241 205 193 0
-199 241 157 193 0
-199 205 157 193 0
-200 242 206 158 0
-200 242 206 194 0
-200 242 158 194 0
-200 206 158 194 0
-201 243 207 159 0
-201 243 207 195 0
-201 243 159 195 0
-201 207 159 195 0
-202 244 208 160 0
-202 244 208 196 0
-202 244 160 196 0
-202 208 160 196 0
-203 245 209 161 0
-203 245 209 197 0
-203 245 161 197 0
-203 209 161 197 0
-204 246 210 162 0
-204 246 210 198 0
-204 246 162 198 0
-204 210 162 198 0
-199 -241 -205 -157 0
-199 -241 -205 -193 0
-199 -241 -157 -193 0
-199 -205 -157 -193 0
-200 -242 -206 -158 0
-200 -242 -206 -194 0
-200 -242 -158 -194 0
-200 -206 -158 -194 0
-201 -243 -207 -159 0
-201 -243 -207 -195 0
-201 -243 -159 -195 0
-201 -207 -159 -195 0
-202 -244 -208 -160 0
-202 -244 -208 -196 0
-202 -244 -160 -196 0
-202 -208 -160 -196 0
-203 -245 -209 -161 0
-203 -245 -209 -197 0
-203 -245 -161 -197 0
-203 -209 -161 -197 0
-204 -246 -210 -162 0
-204 -246 -210 -198 0
-204 -246 -162 -198 0
-204 -210 -162 -198 0
-205 -373 0
-205 -374 0
-205 -375 0
-206 373 0
-206 -374 0
-206 -375 0
-207 -373 0
-207 374 0
-207 -375 0
-208 373 0
-208 374 0
-208 -375 0
-209 -373 0
-209 -374 0
-209 375 0
-210 373 0
-210 -374 0
-210 375 0
-205 247 199 0
-205 247 163 0
-205 199 163 0
-206 248 200 0
-206 248 164 0
-206 200 164 0
-207 249 201 0
-207 249 165 0
-207 201 165 0
-208 250 202 0
-208 250 166 0
-208 202 166 0
-209 251 203 0
-209 251 167 0
-209 203 167 0
-210 252 204 0
-210 252 168 0
-210 204 168 0
-205 -247 -199 -163 0
-206 -248 -200 -164 0
-207 -249 -201 -165 0
-208 -250 -202 -166 0
-209 -251 -203 -167 0
-210 -252 -204 -168 0
-211 -376 0
-211 -377 0
-211 -378 0
-212 376 0
-212 -377 0
-212 -378 0
-213 -376 0
-213 377 0
-213 -378 0
-214 376 0
-214 377 0
-214 -378 0
-215 -376 0
-215 -377 0
-215 378 0
-216 376 0
-216 -377 0
-216 378 0
-211 253 217 0
-211 253 169 0
-211 217 169 0
-212 254 218 0
-212 254 170 0
-212 218 170 0
-213 255 219 0
-213 255 171 0
-213 219 171 0
-214 256 220 0
-214 256 172 0
-214 220 172 0
-215 257 221 0
-215 257 173 0
-215 221 173 0
-216 258 222 0
-216 258 174 0
-216 222 174 0
-211 -253 -217 -169 0
-212 -254 -218 -170 0
-213 -255 -219 -171 0
-214 -256 -220 -172 0
-215 -257 -221 -173 0
-216 -258 -222 -174 0
219 0
-217 0
-218 0
-220 0
-221 0
-222 0
261 225 177 213 0
-261 -225 0
-261 -177 0
-261 -213 0
-225 -177 0
-225 -213 0
-177 -213 0
-223 -379 0
-223 -380 0
-223 -381 0
-224 379 0
-224 -380 0
-224 -381 0
-225 -379 0
-225 380 0
-225 -381 0
-226 379 0
-226 380 0
-226 -381 0
-227 -379 0
-227 -380 0
-227 381 0
-228 379 0
-228 -380 0
-228 381 0
-223 265 229 181 0
-223 265 229 217 0
-223 265 181 217 0
-223 229 181 217 0
-224 266 230 182 0
-224 266 230 218 0
-224 266 182 218 0
-224 230 182 218 0
-225 267 231 183 0
-225 267 231 219 0
-225 267 183 219 0
-225 231 183 219 0
-226 268 232 184 0
-226 268 232 220 0
-226 268 184 220 0
-226 232 184 220 0
-227 269 233 185 0
-227 269 233 221 0
-227 269 185 221 0
-227 233 185 221 0
-228 270 234 186 0
-228 270 234 222 0
-228 270 186 222 0
-228 234 186 222 0
-223 -265 -229 -181 0
-223 -265 -229 -217 0
-223 -265 -181 -217 0
-223 -229 -181 -217 0
-224 -266 -230 -182 0
-224 -266 -230 -218 0
-224 -266 -182 -218 0
-224 -230 -182 -218 0
-225 -267 -231 -183 0
-225 -267 -231 -219 0
-225 -267 -183 -219 0
-225 -231 -183 -219 0
-226 -268 -232 -184 0
-226 -268 -232 -220 0
-226 -268 -184 -220 0
-226 -232 -184 -220 0
-227 -269 -233 -185 0
-227 -269 -233 -221 0
-227 -269 -185 -221 0
-227 -233 -185 -221 0
-228 -270 -234 -186 0
-228 -270 -234 -222 0
-228 -270 -186 -222 0
-228 -234 -186 -222 0
-229 -382 0
-229 -383 0
-229 -384 0
-230 382 0
-230 -383 0
-230 -384 0
-231 -382 0
-231 383 0
-231 -384 0
-232 382 0
-232 383 0
-232 -384 0
-233 -382 0
-233 -383 0
-233 384 0
-234 382 0
-234 -383 0
-234 384 0
-229 271 235 187 0
-229 271 235 223 0
-229 271 187 223 0
-229 235 187 223 0
-230 272 236 188 0
-230 272 236 224 0
-230 272 188 224 0
-230 236 188 224 0
-231 273 237 189 0
-231 273 237 225 0
-231 273 189 225 0
-231 237 189 225 0
-232 274 238 190 0
-232 274 238 226 0
-232 274 190 226 0
-232 238 190 226 0
-233 275 239 191 0
-233 275 239 227 0
-233 275 191 227 0
-233 239 191 227 0
-234 276 240 192 0
-234 276 240 228 0
-234 276 192 228 0
-234 240 192 228 0
-229 -271 -235 -187 0
-229 -271 -235 -223 0
-229 -271 -187 -223 0
-229 -235 -187 -223 0
-230 -272 -236 -188 0
-230 -272 -236 -224 0
-230 -272 -188 -224 0
-230 -236 -188 -224 0
-231 -273 -237 -189 0
-231 -273 -237 -225 0
-231 -273 -189 -225 0
-231 -237 -189 -225 0
-232 -274 -238 -190 0
-232 -274 -238 -226 0
-232 -274 -190 -226 0
-232 -238 -190 -226 0
-233 -275 -239 -191 0
-233 -275 -239 -227 0
-233 -275 -191 -227 0
-233 -239 -191 -227 0
-234 -276 -240 -192 0
-234 -276 -240 -228 0
-234 -276 -192 -228 0
-234 -240 -192 -228 0
-235 -385 0
-235 -386 0
-235 -387 0
-236 385 0
-236 -386 0
-236 -387 0
-237 -385 0
-237 386 0
-237 -387 0
-238 385 0
-238 386 0
-238 -387 0
-239 -385 0
-239 -386 0
-239 387 0
-240 385 0
-240 -386 0
-240 387 0
-235 277 241 193 0
-235 277 241 229 0
-235 277 193 229 0
-235 241 193 229 0
-236 278 242 194 0
-236 278 242 230 0
-236 278 194 230 0
-236 242 194 230 0
-237 279 243 195 0
-237 279 243 231 0
-237 279 195 231 0
-237 243 195 231 0
-238 280 244 196 0
-238 280 244 232 0
-238 280 196 232 0
-238 244 196 232 0
-239 281 245 197 0
-239 281 245 233 0
-239 281 197 233 0
-239 245 197 233 0
-240 282 246 198 0
-240 282 246 234 0
-240 282 198 234 0
-240 246 198 234 0
-235 -277 -241 -193 0
-235 -277 -241 -229 0
-235 -277 -193 -229 0
-235 -241 -193 -229 0
-236 -278 -242 -194 0
-236 -278 -242 -230 0
-236 -278 -194 -230 0
-236 -242 -194 -230 0
-237 -279 -243 -195 0
-237 -279 -243 -231 0
-237 -279 -195 -231 0
-237 -243 -195 -231 0
-238 -280 -244 -196 0
-238 -280 -244 -232 0
-238 -280 -196 -232 0
-238 -244 -196 -232 0
-239 -281 -245 -197 0
-239 -281 -245 -233 0
-239 -281 -197 -233 0
-239 -245 -197 -233 0
-240 -282 -246 -198 0
-240 -282 -246 -234 0
-240 -282 -198 -234 0
-240 -246 -198 -234 0
243 0
-241 0
-242 0
-244 0
-245 0
-246 0
285 249 201 237 0
-285 -249 0
-285 -201 0
-285 -237 0
-249 -201 0
-249 -237 0
-201 -237 0
-247 -388 0
-247 -389 0
-247 -390 0
-248 388 0
-248 -389 0
-248 -390 0
-249 -388 0
-249 389 0
-249 -390 0
-250 388 0
-250 389 0
-250 -390 0
-251 -388 0
-251 -389 0
-251 390 0
-252 388 0
-252 -389 0
-252 390 0
-247 289 241 0
-247 289 205 0
-247 241 205 0
-248 290 242 0
-248 290 206 0
-248 242 206 0
-249 291 243 0
-249 291 207 0
-249 243 207 0
-250 292 244 0
-250 292 208 0
-250 244 208 0
-251 293 245 0
-251 293 209 0
-251 245 209 0
-252 294 246 0
-252 294 210 0
-252 246 210 0
-247 -289 -241 -205 0
-248 -290 -242 -206 0
-249 -291 -243 -207 0
-250 -292 -244 -208 0
-251 -293 -245 -209 0
-252 -294 -246 -210 0
253 0
-254 0
-255 0
-256 0
-257 0
-258 0
211 259 0
-211 -259 0
260 0
-259 0
-261 0
-262 0
-263 0
-264 0
218 266 254 0
-218 -266 0
-218 -254 0
-266 -254 0
-265 -391 0
-265 -392 0
-265 -393 0
-266 391 0
-266 -392 0
-266 -393 0
-267 -391 0
-267 392 0
-267 -393 0
-268 391 0
-268 392 0
-268 -393 0
-269 -391 0
-269 -392 0
-269 393 0
-270 391 0
-270 -392 0
-270 393 0
-265 223 271 0
-265 223 259 0
-265 271 259 0
-266 224 272 0
-266 224 260 0
-266 272 260 0
-267 225 273 0
-267 225 261 0
-267 273 261 0
-268 226 274 0
-268 226 262 0
-268 274 262 0
-269 227 275 0
-269 227 263 0
-269 275 263 0
-270 228 276 0
-270 228 264 0
-270 276 264 0
-265 -223 -271 -259 0
-266 -224 -272 -260 0
-267 -225 -273 -261 0
-268 -226 -274 -262 0
-269 -227 -275 -263 0
-270 -228 -276 -264 0
-271 -394 0
-271 -395 0
-271 -396 0
-272 394 0
-272 -395 0
-272 -396 0
-273 -394 0
-273 395 0
-273 -396 0
-274 394 0
-274 395 0
-274 -396 0
-275 -394 0
-275 -395 0
-275 396 0
-276 394 0
-276 -395 0
-276 396 0
-271 229 277 0
-271 229 265 0
-271 277 265 0
-272 230 278 0
-272 230 266 0
-272 278 266 0
-273 231 279 0
-273 231 267 0
-273 279 267 0
-274 232 280 0
-274 232 268 0
-274 280 268 0
-275 233 281 0
-275 233 269 0
-275 281 269 0
-276 234 282 0
-276 234 270 0
-276 282 270 0
-271 -229 -277 -265 0
-272 -230 -278 -266 0
-273 -231 -279 -267 0
-274 -232 -280 -268 0
-275 -233 -281 -269 0
-276 -234 -282 -270 0
-277 -397 0
-277 -398 0
-277 -399 0
-278 397 0
-278 -398 0
-278 -399 0
-279 -397 0
-279 398 0
-279 -399 0
-280 397 0
-280 398 0
-280 -399 0
-281 -397 0
-281 -398 0
-281 399 0
-282 397 0
-282 -398 0
-282 399 0
-277 235 283 0
-277 235 271 0
-277 283 271 0
-278 236 284 0
-278 236 272 0
-278 284 272 0
-279 237 285 0
-279 237 273 0
-279 285 273 0
-280 238 286 0
-280 238 274 0
-280 286 274 0
-281 239 287 0
-281 239 275 0
-281 287 275 0
-282 240 288 0
-282 240 276 0
-282 288 276 0
-277 -235 -283 -271 0
-278 -236 -284 -272 0
-279 -237 -285 -273 0
-280 -238 -286 -274 0
-281 -239 -287 -275 0
-282 -240 -288 -276 0
-283 -400 0
-283 -401 0
-283 -402 0
-284 400 0
-284 -401 0
-284 -402 0
-285 -400 0
-285 401 0
-285 -402 0
-286 400 0
-286 401 0
-286 -402 0
-287 -400 0
-287 -401 0
-287 402 0
-288 400 0
-288 -401 0
-288 402 0
-283 241 289 0
-283 241 277 0
-283 289 277 0
-284 242 290 0
-284 242 278 0
-284 290 278 0
-285 243 291 0
-285 243 279 0
-285 291 279 0
-286 244 292 0
-286 244 280 0
-286 292 280 0
-287 245 293 0
-287 245 281 0
-287 293 281 0
-288 246 294 0
-288 246 282 0
-288 294 282 0
-283 -241 -289 -277 0
-284 -242 -290 -278 0
-285 -243 -291 -279 0
-286 -244 -292 -280 0
-287 -245 -293 -281 0
-288 -246 -294 -282 0
-289 -403 0
-289 -404 0
-289 -405 0
-290 403 0
-290 -404 0
-290 -405 0
-291 -403 0
-291 404 0
-291 -405 0
-292 403 0
-292 404 0
-292 -405 0
-293 -403 0
-293 -404 0
-293 405 0
-294 403 0
-294 -404 0
-294 405 0
-289 247 0
-289 283 0
-290 248 0
-290 284 0
-291 249 0
-291 285 0
-292 250 0
-292 286 0
-293 251 0
-293 287 0
-294 252 0
-294 288 0